words_hard_train/1567.qaiger
aag 181 24 0 1 157
2
4
12
14
22
24
40
44
54
98
120
122
148
176
184
198
224
232
246
274
282
296
324
340
362
6 2 5
8 3 4
10 7 9
16 12 15
18 13 14
20 17 19
26 22 25
28 23 24
30 27 29
32 20 30
34 11 33
36 10 32
38 35 37
42 40 22
46 22 44
48 46 13
50 47 12
52 49 51
56 52 55
58 53 54
60 57 59
62 43 61
64 42 60
66 63 65
68 29 40
70 27 41
72 69 71
74 67 73
76 72 60
78 21 31
80 79 33
82 77 81
84 75 83
86 65 59
88 12 44
90 89 47
92 91 3
94 90 2
96 93 95
100 96 99
102 97 98
104 101 103
106 86 105
108 87 104
110 107 109
112 84 110
114 39 113
116 85 111
118 115 117
124 120 123
126 121 122
128 125 127
130 129 37
132 128 36
134 131 133
136 109 103
138 2 44
140 90 139
142 141 120
144 140 121
146 143 145
150 147 149
152 146 148
154 151 153
156 136 155
158 137 154
160 157 159
162 135 161
164 118 163
166 134 160
168 165 167
170 159 153
172 120 44
174 140 173
178 175 176
180 174 177
182 179 181
186 183 185
188 182 184
190 187 189
192 170 191
194 171 190
196 193 195
200 176 199
202 177 198
204 201 203
206 205 133
208 204 132
210 207 209
212 197 211
214 169 213
216 196 210
218 215 217
220 195 189
222 181 44
226 223 224
228 222 225
230 227 229
234 230 233
236 231 232
238 235 237
240 220 239
242 221 238
244 241 243
248 224 247
250 225 246
252 249 251
254 253 209
256 252 208
258 255 257
260 245 259
262 219 261
264 244 258
266 263 265
268 243 237
270 180 225
272 271 44
276 273 274
278 272 275
280 277 279
284 280 283
286 281 282
288 285 287
290 268 289
292 269 288
294 291 293
298 274 297
300 275 296
302 299 301
304 303 257
306 302 256
308 305 307
310 295 309
312 267 311
314 294 308
316 313 315
318 316 307
320 270 44
322 320 275
326 322 325
328 323 324
330 327 329
332 293 287
334 331 333
336 330 332
338 335 337
342 44 341
344 45 340
346 343 345
348 339 347
350 318 349
352 317 306
354 348 352
356 351 355
358 338 353
360 358 346
362 356 361
i0 2 y1[2]
i1 1 x1[2]
i2 2 y1[1]
i3 1 x1[1]
i4 2 y1[0]
i5 1 x1[0]
i6 2 y2[0]
i7 2 y1[7]
i8 2 y2[1]
i9 2 y2[2]
i10 2 y1[3]
i11 1 x1[3]
i12 2 y2[3]
i13 2 y1[4]
i14 2 y2[4]
i15 1 x1[4]
i16 2 y1[5]
i17 2 y2[5]
i18 1 x1[5]
i19 2 y1[6]
i20 2 y2[6]
i21 1 x1[6]
i22 2 y2[7]
i23 1 x1[7]
o0 bv[0]
c
simplified
  <=
    xor
      1 x1
      2 y1
    add
      abs
        2 y1
      2 y2
