words_hard_train/1567.qaiger.qdimacs
p cnf 181 472
a 2 99 7 170 12 148 123 61 0
e 1 3 4 5 6 8 9 10 11 13 14 15 16 17 18 19 20 21 22 23 24 25 26 27 28 29 30 31 32 33 34 35 36 37 38 39 40 41 42 43 44 45 46 47 48 49 50 51 52 53 54 55 56 57 58 59 60 62 63 64 65 66 67 68 69 70 71 72 73 74 75 76 77 78 79 80 81 82 83 84 85 86 87 88 89 90 91 92 93 94 95 96 97 98 100 101 102 103 104 105 106 107 108 109 110 111 112 113 114 115 116 117 118 119 120 121 122 124 125 126 127 128 129 130 131 132 133 134 135 136 137 138 139 140 141 142 143 144 145 146 147 149 150 151 152 153 154 155 156 157 158 159 160 161 162 163 164 165 166 167 168 169 171 172 173 174 175 176 177 178 179 180 181 0
-1 2 3 0
1 -3 0
-2 -3 0
1 -2 4 0
-1 -4 0
2 -4 0
3 4 5 0
-3 -5 0
-4 -5 0
-6 7 8 0
6 -8 0
-7 -8 0
6 -7 9 0
-6 -9 0
7 -9 0
8 9 10 0
-8 -10 0
-9 -10 0
-11 12 13 0
11 -13 0
-12 -13 0
11 -12 14 0
-11 -14 0
12 -14 0
13 14 15 0
-13 -15 0
-14 -15 0
-10 -15 16 0
10 -16 0
15 -16 0
5 16 17 0
-5 -17 0
-16 -17 0
-5 -16 18 0
5 -18 0
16 -18 0
17 18 19 0
-17 -19 0
-18 -19 0
-20 -11 21 0
20 -21 0
11 -21 0
-11 -22 23 0
11 -23 0
22 -23 0
-23 6 24 0
23 -24 0
-6 -24 0
23 -6 25 0
-23 -25 0
6 -25 0
24 25 26 0
-24 -26 0
-25 -26 0
-26 27 28 0
26 -28 0
-27 -28 0
26 -27 29 0
-26 -29 0
27 -29 0
28 29 30 0
-28 -30 0
-29 -30 0
21 30 31 0
-21 -31 0
-30 -31 0
-21 -30 32 0
21 -32 0
30 -32 0
31 32 33 0
-31 -33 0
-32 -33 0
14 -20 34 0
-14 -34 0
20 -34 0
13 20 35 0
-13 -35 0
-20 -35 0
34 35 36 0
-34 -36 0
-35 -36 0
33 36 37 0
-33 -37 0
-36 -37 0
-36 -30 38 0
36 -38 0
30 -38 0
10 15 39 0
-10 -39 0
-15 -39 0
39 16 40 0
-39 -40 0
-16 -40 0
38 40 41 0
-38 -41 0
-40 -41 0
37 41 42 0
-37 -42 0
-41 -42 0
32 29 43 0
-32 -43 0
-29 -43 0
-6 -22 44 0
6 -44 0
22 -44 0
44 23 45 0
-44 -45 0
-23 -45 0
45 1 46 0
-45 -46 0
-1 -46 0
-45 -1 47 0
45 -47 0
1 -47 0
46 47 48 0
-46 -48 0
-47 -48 0
-48 49 50 0
48 -50 0
-49 -50 0
48 -49 51 0
-48 -51 0
49 -51 0
50 51 52 0
-50 -52 0
-51 -52 0
-43 52 53 0
43 -53 0
-52 -53 0
43 -52 54 0
-43 -54 0
52 -54 0
53 54 55 0
-53 -55 0
-54 -55 0
-42 -55 56 0
42 -56 0
55 -56 0
19 56 57 0
-19 -57 0
-56 -57 0
42 55 58 0
-42 -58 0
-55 -58 0
57 58 59 0
-57 -59 0
-58 -59 0
-60 61 62 0
60 -62 0
-61 -62 0
60 -61 63 0
-60 -63 0
61 -63 0
62 63 64 0
-62 -64 0
-63 -64 0
64 18 65 0
-64 -65 0
-18 -65 0
-64 -18 66 0
64 -66 0
18 -66 0
65 66 67 0
-65 -67 0
-66 -67 0
54 51 68 0
-54 -68 0
-51 -68 0
-1 -22 69 0
1 -69 0
22 -69 0
-45 69 70 0
45 -70 0
-69 -70 0
70 -60 71 0
-70 -71 0
60 -71 0
-70 60 72 0
70 -72 0
-60 -72 0
71 72 73 0
-71 -73 0
-72 -73 0
73 74 75 0
-73 -75 0
-74 -75 0
-73 -74 76 0
73 -76 0
74 -76 0
75 76 77 0
-75 -77 0
-76 -77 0
-68 77 78 0
68 -78 0
-77 -78 0
68 -77 79 0
-68 -79 0
77 -79 0
78 79 80 0
-78 -80 0
-79 -80 0
67 80 81 0
-67 -81 0
-80 -81 0
-59 81 82 0
59 -82 0
-81 -82 0
-67 -80 83 0
67 -83 0
80 -83 0
82 83 84 0
-82 -84 0
-83 -84 0
79 76 85 0
-79 -85 0
-76 -85 0
-60 -22 86 0
60 -86 0
22 -86 0
-70 86 87 0
70 -87 0
-86 -87 0
87 -88 89 0
-87 -89 0
88 -89 0
-87 88 90 0
87 -90 0
-88 -90 0
89 90 91 0
-89 -91 0
-90 -91 0
91 92 93 0
-91 -93 0
-92 -93 0
-91 -92 94 0
91 -94 0
92 -94 0
93 94 95 0
-93 -95 0
-94 -95 0
-85 95 96 0
85 -96 0
-95 -96 0
85 -95 97 0
-85 -97 0
95 -97 0
96 97 98 0
-96 -98 0
-97 -98 0
-88 99 100 0
88 -100 0
-99 -100 0
88 -99 101 0
-88 -101 0
99 -101 0
100 101 102 0
-100 -102 0
-101 -102 0
102 66 103 0
-102 -103 0
-66 -103 0
-102 -66 104 0
102 -104 0
66 -104 0
103 104 105 0
-103 -105 0
-104 -105 0
98 105 106 0
-98 -106 0
-105 -106 0
84 106 107 0
-84 -107 0
-106 -107 0
-98 -105 108 0
98 -108 0
105 -108 0
107 108 109 0
-107 -109 0
-108 -109 0
97 94 110 0
-97 -110 0
-94 -110 0
90 -22 111 0
-90 -111 0
22 -111 0
111 -112 113 0
-111 -113 0
112 -113 0
-111 112 114 0
111 -114 0
-112 -114 0
113 114 115 0
-113 -115 0
-114 -115 0
-115 116 117 0
115 -117 0
-116 -117 0
115 -116 118 0
-115 -118 0
116 -118 0
117 118 119 0
-117 -119 0
-118 -119 0
-110 119 120 0
110 -120 0
-119 -120 0
110 -119 121 0
-110 -121 0
119 -121 0
120 121 122 0
-120 -122 0
-121 -122 0
-112 123 124 0
112 -124 0
-123 -124 0
112 -123 125 0
-112 -125 0
123 -125 0
124 125 126 0
-124 -126 0
-125 -126 0
126 104 127 0
-126 -127 0
-104 -127 0
-126 -104 128 0
126 -128 0
104 -128 0
127 128 129 0
-127 -129 0
-128 -129 0
122 129 130 0
-122 -130 0
-129 -130 0
109 130 131 0
-109 -131 0
-130 -131 0
-122 -129 132 0
122 -132 0
129 -132 0
131 132 133 0
-131 -133 0
-132 -133 0
121 118 134 0
-121 -134 0
-118 -134 0
-90 112 135 0
90 -135 0
-112 -135 0
135 -22 136 0
-135 -136 0
22 -136 0
136 -137 138 0
-136 -138 0
137 -138 0
-136 137 139 0
136 -139 0
-137 -139 0
138 139 140 0
-138 -140 0
-139 -140 0
-140 141 142 0
140 -142 0
-141 -142 0
140 -141 143 0
-140 -143 0
141 -143 0
142 143 144 0
-142 -144 0
-143 -144 0
-134 144 145 0
134 -145 0
-144 -145 0
134 -144 146 0
-134 -146 0
144 -146 0
145 146 147 0
-145 -147 0
-146 -147 0
-137 148 149 0
137 -149 0
-148 -149 0
137 -148 150 0
-137 -150 0
148 -150 0
149 150 151 0
-149 -151 0
-150 -151 0
151 128 152 0
-151 -152 0
-128 -152 0
-151 -128 153 0
151 -153 0
128 -153 0
152 153 154 0
-152 -154 0
-153 -154 0
147 154 155 0
-147 -155 0
-154 -155 0
133 155 156 0
-133 -156 0
-155 -156 0
-147 -154 157 0
147 -157 0
154 -157 0
156 157 158 0
-156 -158 0
-157 -158 0
-158 153 159 0
158 -159 0
-153 -159 0
-135 -22 160 0
135 -160 0
22 -160 0
-160 137 161 0
160 -161 0
-137 -161 0
-161 162 163 0
161 -163 0
-162 -163 0
161 -162 164 0
-161 -164 0
162 -164 0
163 164 165 0
-163 -165 0
-164 -165 0
146 143 166 0
-146 -166 0
-143 -166 0
165 166 167 0
-165 -167 0
-166 -167 0
-165 -166 168 0
165 -168 0
166 -168 0
167 168 169 0
-167 -169 0
-168 -169 0
-22 170 171 0
22 -171 0
-170 -171 0
22 -170 172 0
-22 -172 0
170 -172 0
171 172 173 0
-171 -173 0
-172 -173 0
169 173 174 0
-169 -174 0
-173 -174 0
-159 174 175 0
159 -175 0
-174 -175 0
158 -153 176 0
-158 -176 0
153 -176 0
-174 -176 177 0
174 -177 0
176 -177 0
175 177 178 0
-175 -178 0
-177 -178 0
-169 176 179 0
169 -179 0
-176 -179 0
-179 -173 180 0
179 -180 0
173 -180 0
-178 180 181 0
178 -181 0
-180 -181 0
181 0
